345 5
10 10 10 10 10 

0 0 0 0 0 0 5 2 14 26 38 50 
0 0 0 0 0 0 4 3 4 5 8 
9 0 0 0 0 1 4 12 10 7 6 
1 0 0 0 0 4 3 12 11 6 
9 0 0 0 0 5 2 10 9 
4 0 0 0 0 4 1 9 
1 0 0 0 0 4 1 11 
8 0 0 0 0 5 1 10 
2 0 0 0 0 5 1 13 
6 0 0 0 0 10 1 13 
2 0 0 0 0 7 1 13 
8 0 0 0 0 5 1 13 
0 0 0 0 0 0 1 62 
0 0 0 0 0 0 5 15 16 17 21 24 
3 0 0 0 0 1 3 20 19 18 
9 0 0 0 0 6 2 19 18 
2 0 0 0 0 4 2 22 19 
10 0 0 0 0 2 2 23 22 
1 0 0 0 0 7 1 23 
2 0 0 0 0 6 1 22 
5 0 0 0 0 5 1 22 
10 0 0 0 0 10 1 25 
1 0 0 0 0 3 1 25 
10 0 0 0 0 6 1 25 
0 0 0 0 0 0 1 62 
0 0 0 0 0 0 5 27 28 30 31 32 
1 1 0 0 0 0 1 29 
3 6 0 0 0 0 1 29 
2 4 0 0 0 0 4 36 35 34 33 
2 9 0 0 0 0 3 36 34 33 
6 5 0 0 0 0 2 35 34 
3 7 0 0 0 0 1 33 
9 3 0 0 0 0 1 37 
3 6 0 0 0 0 1 37 
3 2 0 0 0 0 1 37 
3 7 0 0 0 0 1 37 
0 0 0 0 0 0 1 62 
0 0 0 0 0 0 5 39 40 41 47 48 
9 0 0 0 1 0 3 46 45 42 
5 0 0 0 5 0 2 45 44 
8 0 0 0 5 0 2 44 43 
2 0 0 0 4 0 1 43 
7 0 0 0 6 0 1 49 
8 0 0 0 7 0 1 49 
10 0 0 0 6 0 1 49 
4 0 0 0 4 0 1 49 
9 0 0 0 6 0 1 49 
3 0 0 0 6 0 1 49 
0 0 0 0 0 0 1 62 
0 0 0 0 0 0 5 51 52 53 56 60 
3 0 0 1 0 0 2 59 54 
3 0 0 7 0 0 2 58 55 
2 0 0 6 0 0 2 58 55 
4 0 0 4 0 0 2 58 57 
3 0 0 5 0 0 1 57 
9 0 0 10 0 0 1 57 
1 0 0 4 0 0 1 61 
10 0 0 6 0 0 1 61 
2 0 0 2 0 0 1 61 
10 0 0 5 0 0 1 61 
0 0 0 0 0 0 1 62 
0 0 0 0 0 0 5 63 75 87 99 111 
0 0 0 0 0 0 4 64 65 66 69 
7 0 0 1 0 0 4 73 72 68 67 
7 0 0 6 0 0 4 73 72 70 67 
1 0 0 8 0 0 3 72 70 67 
9 0 0 5 0 0 1 71 
4 0 0 3 0 0 1 70 
4 0 0 6 0 0 1 70 
1 0 0 8 0 0 1 74 
5 0 0 3 0 0 1 74 
2 0 0 6 0 0 1 74 
8 0 0 4 0 0 1 74 
0 0 0 0 0 0 1 123 
0 0 0 0 0 0 7 76 77 79 80 81 84 85 
8 0 0 1 0 0 2 83 78 
1 0 0 3 0 0 2 83 78 
4 0 0 3 0 0 1 82 
1 0 0 8 0 0 1 82 
9 0 0 4 0 0 1 82 
7 0 0 6 0 0 1 82 
8 0 0 5 0 0 1 86 
10 0 0 6 0 0 1 86 
4 0 0 10 0 0 1 86 
10 0 0 4 0 0 1 86 
0 0 0 0 0 0 1 123 
0 0 0 0 0 0 4 88 89 90 91 
3 1 0 0 0 0 4 97 95 94 92 
9 7 0 0 0 0 3 95 93 92 
4 4 0 0 0 0 2 95 94 
5 7 0 0 0 0 1 93 
1 6 0 0 0 0 1 96 
9 4 0 0 0 0 1 94 
4 9 0 0 0 0 1 98 
3 7 0 0 0 0 1 98 
2 3 0 0 0 0 1 98 
8 2 0 0 0 0 1 98 
0 0 0 0 0 0 1 123 
0 0 0 0 0 0 4 100 101 102 104 
1 0 0 0 1 0 4 109 108 105 103 
1 0 0 0 4 0 2 105 103 
3 0 0 0 5 0 2 107 105 
1 0 0 0 9 0 1 106 
2 0 0 0 3 0 1 105 
9 0 0 0 6 0 1 110 
2 0 0 0 6 0 1 110 
3 0 0 0 5 0 1 110 
1 0 0 0 5 0 1 110 
9 0 0 0 6 0 1 110 
0 0 0 0 0 0 1 123 
0 0 0 0 0 0 3 112 113 114 
10 0 0 1 0 0 4 121 120 116 115 
4 0 0 5 0 0 4 120 118 116 115 
7 0 0 7 0 0 3 121 119 117 
6 0 0 6 0 0 1 119 
10 0 0 7 0 0 1 119 
1 0 0 10 0 0 1 120 
2 0 0 6 0 0 1 119 
4 0 0 4 0 0 1 122 
8 0 0 2 0 0 1 122 
4 0 0 2 0 0 1 122 
0 0 0 0 0 0 1 123 
0 0 0 0 0 0 5 124 136 148 160 172 
0 0 0 0 0 0 5 125 126 127 128 131 
7 1 0 0 0 0 3 134 130 129 
2 5 0 0 0 0 2 133 129 
5 8 0 0 0 0 2 133 132 
2 4 0 0 0 0 2 133 132 
5 4 0 0 0 0 1 132 
2 9 0 0 0 0 1 132 
2 3 0 0 0 0 1 132 
7 5 0 0 0 0 1 135 
7 6 0 0 0 0 1 135 
3 5 0 0 0 0 1 135 
0 0 0 0 0 0 1 184 
0 0 0 0 0 0 4 137 138 139 141 
1 0 0 0 0 1 5 146 145 144 143 142 
7 0 0 0 0 7 3 145 144 140 
9 0 0 0 0 5 1 140 
8 0 0 0 0 8 2 143 142 
8 0 0 0 0 6 2 144 142 
7 0 0 0 0 4 1 147 
5 0 0 0 0 8 1 147 
7 0 0 0 0 6 1 147 
1 0 0 0 0 3 1 147 
8 0 0 0 0 2 1 147 
0 0 0 0 0 0 1 184 
0 0 0 0 0 0 7 149 151 152 153 156 157 158 
7 0 0 0 1 0 2 155 150 
6 0 0 0 6 0 1 154 
1 0 0 0 3 0 1 155 
3 0 0 0 4 0 1 154 
9 0 0 0 6 0 1 154 
2 0 0 0 3 0 1 159 
4 0 0 0 5 0 1 159 
6 0 0 0 8 0 1 159 
4 0 0 0 9 0 1 159 
4 0 0 0 5 0 1 159 
0 0 0 0 0 0 1 184 
0 0 0 0 0 0 3 161 162 166 
5 0 0 1 0 0 3 170 164 163 
6 0 0 5 0 0 2 165 163 
4 0 0 4 0 0 3 169 168 167 
6 0 0 4 0 0 3 169 168 167 
9 0 0 6 0 0 2 170 168 
7 0 0 5 0 0 1 167 
1 0 0 4 0 0 1 171 
7 0 0 10 0 0 1 171 
3 0 0 6 0 0 1 171 
3 0 0 5 0 0 1 171 
0 0 0 0 0 0 1 184 
0 0 0 0 0 0 6 173 175 179 180 181 182 
6 0 0 0 1 0 3 178 176 174 
10 0 0 0 3 0 1 177 
9 0 0 0 6 0 1 176 
8 0 0 0 7 0 1 183 
10 0 0 0 5 0 1 183 
5 0 0 0 4 0 1 183 
2 0 0 0 10 0 1 183 
9 0 0 0 3 0 1 183 
3 0 0 0 5 0 1 183 
10 0 0 0 6 0 1 183 
0 0 0 0 0 0 1 184 
0 0 0 0 0 0 5 185 197 219 241 263 
0 0 0 0 0 0 2 186 187 
10 0 0 0 0 1 6 193 192 191 190 189 188 
2 0 0 0 0 3 6 193 192 191 190 189 188 
10 0 0 0 0 3 2 195 194 
10 0 0 0 0 7 2 195 194 
2 0 0 0 0 8 2 195 194 
2 0 0 0 0 9 2 195 194 
5 0 0 0 0 6 2 195 194 
4 0 0 0 0 4 2 195 194 
7 0 0 0 0 5 1 196 
7 0 0 0 0 4 1 196 
0 0 0 0 0 0 5 285 297 309 321 333 
0 0 0 0 0 0 5 198 199 200 201 205 
5 0 0 1 0 1 4 209 208 206 202 
4 0 0 2 0 5 4 209 208 206 202 
8 0 0 6 0 6 4 217 208 206 203 
2 0 0 7 0 1 5 216 209 208 206 204 
9 0 0 6 0 5 3 217 216 204 
2 0 0 7 0 9 2 216 204 
2 0 0 2 0 8 4 214 211 210 207 
4 0 0 5 0 3 4 217 216 209 208 
3 0 0 5 0 8 3 214 210 207 
9 0 0 10 0 7 2 215 213 
8 0 0 3 0 4 2 214 212 
4 0 0 7 0 2 2 213 212 
5 0 0 5 0 4 1 212 
7 0 0 5 0 8 1 212 
2 0 0 3 0 9 1 218 
10 0 0 3 0 5 1 218 
3 0 0 6 0 6 1 218 
10 0 0 7 0 2 1 218 
1 0 0 3 0 3 1 218 
1 0 0 7 0 4 1 218 
0 0 0 0 0 0 1 345 
0 0 0 0 0 0 16 220 224 226 227 228 229 230 231 232 233 234 235 236 237 238 239 
4 1 0 1 0 0 1 221 
10 7 0 9 0 0 1 222 
5 3 0 3 0 0 1 223 
10 4 0 4 0 0 1 225 
10 3 0 7 0 0 1 225 
3 2 0 9 0 0 1 240 
6 4 0 2 0 0 1 240 
5 10 0 5 0 0 1 240 
2 5 0 4 0 0 1 240 
10 5 0 6 0 0 1 240 
6 4 0 2 0 0 1 240 
8 5 0 2 0 0 1 240 
3 4 0 8 0 0 1 240 
1 8 0 3 0 0 1 240 
4 8 0 6 0 0 1 240 
10 4 0 7 0 0 1 240 
3 8 0 6 0 0 1 240 
6 5 0 5 0 0 1 240 
9 4 0 6 0 0 1 240 
8 6 0 5 0 0 1 240 
0 0 0 0 0 0 1 345 
0 0 0 0 0 0 9 242 243 244 246 247 250 251 252 261 
8 0 1 0 1 0 5 260 259 258 257 249 
9 0 5 0 2 0 3 258 256 245 
5 0 9 0 5 0 2 256 248 
2 0 2 0 7 0 4 259 257 255 253 
5 0 3 0 6 0 2 256 249 
3 0 3 0 7 0 3 258 257 253 
10 0 6 0 4 0 1 249 
3 0 4 0 2 0 2 255 253 
8 0 5 0 6 0 2 255 253 
3 0 2 0 8 0 2 260 256 
8 0 7 0 3 0 1 253 
7 0 7 0 3 0 1 254 
1 0 10 0 9 0 1 262 
5 0 6 0 9 0 1 262 
5 0 10 0 4 0 1 262 
7 0 4 0 4 0 1 262 
10 0 3 0 8 0 1 262 
8 0 7 0 7 0 1 262 
7 0 1 0 3 0 1 262 
2 0 5 0 2 0 1 262 
0 0 0 0 0 0 1 345 
0 0 0 0 0 0 9 264 265 266 267 268 269 270 272 275 
7 0 0 1 1 0 3 283 277 271 
8 0 0 4 1 0 3 283 277 271 
9 0 0 5 6 0 3 283 277 273 
9 0 0 5 8 0 2 283 271 
1 0 0 3 7 0 5 283 282 278 277 276 
7 0 0 7 4 0 4 283 282 278 274 
10 0 0 7 10 0 4 283 278 277 274 
3 0 0 4 4 0 3 282 278 274 
6 0 0 3 4 0 3 282 281 276 
1 0 0 4 5 0 2 282 274 
3 0 0 5 9 0 1 276 
7 0 0 5 4 0 1 276 
10 0 0 3 3 0 2 280 279 
6 0 0 9 3 0 2 281 279 
7 0 0 5 5 0 1 281 
6 0 0 9 6 0 1 284 
5 0 0 6 8 0 1 284 
7 0 0 3 4 0 1 284 
8 0 0 6 3 0 1 284 
5 0 0 6 5 0 1 284 
0 0 0 0 0 0 1 345 
0 0 0 0 0 0 5 286 287 288 290 295 
2 0 0 0 1 0 3 294 292 291 
6 0 0 0 8 0 2 292 291 
7 0 0 0 7 0 1 289 
2 0 0 0 4 0 1 293 
2 0 0 0 3 0 1 291 
1 0 0 0 5 0 1 296 
6 0 0 0 3 0 1 296 
7 0 0 0 7 0 1 296 
7 0 0 0 7 0 1 296 
2 0 0 0 5 0 1 296 
0 0 0 0 0 0 1 345 
0 0 0 0 0 0 5 298 299 300 304 307 
3 0 0 1 0 0 3 306 303 302 
7 0 0 5 0 0 2 306 301 
6 0 0 5 0 0 2 306 305 
6 0 0 6 0 0 1 305 
4 0 0 6 0 0 1 305 
9 0 0 8 0 0 1 305 
10 0 0 3 0 0 1 306 
10 0 0 3 0 0 1 308 
2 0 0 8 0 0 1 308 
7 0 0 5 0 0 1 308 
0 0 0 0 0 0 1 345 
0 0 0 0 0 0 7 310 312 313 314 317 318 319 
2 0 1 0 0 0 2 315 311 
1 0 5 0 0 0 1 316 
3 0 6 0 0 0 1 316 
3 0 8 0 0 0 1 315 
9 0 5 0 0 0 1 315 
1 0 5 0 0 0 1 320 
6 0 6 0 0 0 1 320 
1 0 5 0 0 0 1 320 
8 0 6 0 0 0 1 320 
3 0 3 0 0 0 1 320 
0 0 0 0 0 0 1 345 
0 0 0 0 0 0 2 322 323 
1 0 0 1 0 0 3 331 330 325 
2 0 0 9 0 0 2 328 324 
3 0 0 3 0 0 3 329 327 326 
2 0 0 9 0 0 3 328 327 326 
7 0 0 5 0 0 1 332 
1 0 0 3 0 0 1 332 
8 0 0 6 0 0 1 332 
2 0 0 3 0 0 1 332 
2 0 0 6 0 0 1 332 
3 0 0 5 0 0 1 332 
0 0 0 0 0 0 1 345 
0 0 0 0 0 0 3 334 335 336 
10 0 0 0 0 1 5 341 340 339 338 337 
4 0 0 0 0 4 4 340 339 338 337 
4 0 0 0 0 8 3 341 339 337 
5 0 0 0 0 6 2 343 342 
1 0 0 0 0 7 2 343 342 
1 0 0 0 0 4 1 342 
7 0 0 0 0 6 1 343 
8 0 0 0 0 5 1 342 
7 0 0 0 0 5 1 344 
3 0 0 0 0 4 1 344 
0 0 0 0 0 0 1 345 
0 0 0 0 0 0 0 
